job_count = 12 ;
duration = [|6, 14|13, 8|24, 11|18, 11|12, 4|5, 4|19, 10|16, 10|8, 9|22, 8|17, 13|10, 8|] ;
machine_count = 2 ;
cost = [|17, 39|28, 29|19, 32|25, 47|20, 33|19, 29|26, 43|24, 38|18, 53|16, 48|29, 49|20, 41|] ;
deadline = [40, 40, 40, 40, 40, 40, 40, 40, 40, 40, 40, 40] ;
release = [0, 0, 0, 0, 0, 0, 0, 0, 0, 0, 0, 0] ;
resource = [|5, 5|3, 3|9, 9|2, 2|6, 6|3, 3|4, 4|8, 8|9, 9|8, 8|9, 9|2, 2|] ;
capacities = [10, 10] ;
